W=4;
H=8;

MAX_TIME=24;
MAX_TRACKS=9;

TARGET=(8,4);

TRAINS=[(6,3,TOP),(1,3,DOWN),(6,2,TOP)];
DECOYS=[];

INIT_POS=[
(1,3,STRAIGHT_TD),
(3,2,ESWITCH_D_T_R),
(4,3,ESWITCH_T_D_L),
(6,2,STRAIGHT_TD),
(6,3,STRAIGHT_TD),
(8,3,STRAIGHT_RL),
(8,4,STRAIGHT_RL),
];
TUNNEL_PAIRS=[];

GATES=[];
ACTIVATIONS=[];

DSWITCHES=[];
STATIONS=[];

SEMAPHORE_SUPPLY=0;
